Maximize
  0 x0 - 12 x1 + 0 x2 - 43 x3 + 0 x4 + 0 x5 + 0 x6 + 0 x7 - 33 x8 + 34 x9
   + 39 x10 + 0 x11 + 26 x12 + 27 x13 + 7 x14 + 4 x15 + 0 x16 + 0 x17
   - 15 x18 - 31 x19 + 0 x20 + 0 x21 + 0 x22 - 31 x23 + 49 x24 - 9 x25
   + 0 x26 + 46 x27 - 34 x28 + 0 x29 + 0 x30 + 0 x31 + 0 x32 + 0 x33
   + 0 x34 + 0 x35 - 17 x36 + 0 x37 + 0 x38 + 42 x39 + [ 49 x0 ^2
   + 92 x0 * x3 + 46 x0 * x7 + 68 x0 * x8 + 90 x0 * x9 + 72 x0 * x11
   + 18 x0 * x12 + 96 x0 * x15 - 16 x0 * x17 + 58 x0 * x18 + 50 x0 * x21
   - 82 x0 * x22 - 2 x0 * x24 - 22 x0 * x30 - 40 x0 * x31 + 18 x0 * x33
   - 40 x0 * x34 + 44 x0 * x35 - 54 x0 * x36 + 20 x0 * x38 - 64 x1 * x3
   + 96 x1 * x4 - 60 x1 * x5 - 14 x1 * x6 + 60 x1 * x9 - 42 x1 * x10
   + 10 x1 * x11 - 84 x1 * x14 - 14 x1 * x16 + 40 x1 * x17 + 92 x1 * x19
   - 48 x1 * x24 + 40 x1 * x26 + 80 x1 * x28 + 32 x1 * x29 + 54 x1 * x31
   + 80 x1 * x32 - 62 x1 * x33 - 32 x1 * x34 - 66 x1 * x36 - 10 x1 * x38
   + 34 x1 * x39 + 36 x2 ^2 - 2 x2 * x3 - 18 x2 * x5 + 20 x2 * x6
   + 8 x2 * x7 - 78 x2 * x10 + 34 x2 * x11 - 12 x2 * x12 + 24 x2 * x15
   - 58 x2 * x17 - 56 x2 * x20 + 72 x2 * x21 - 74 x2 * x23 - 60 x2 * x24
   - 86 x2 * x27 + 12 x2 * x29 + 82 x2 * x31 + 12 x2 * x38 - 42 x3 ^2
   + 44 x3 * x4 - 60 x3 * x5 - 90 x3 * x7 - 82 x3 * x8 + 20 x3 * x9
   - 72 x3 * x13 - 86 x3 * x16 + 60 x3 * x17 - 4 x3 * x19 + 26 x3 * x20
   - 8 x3 * x21 - 32 x3 * x23 + 78 x3 * x28 + 22 x3 * x33 + 66 x3 * x34
   - 92 x3 * x35 - 58 x3 * x36 - 96 x3 * x37 + 30 x3 * x38 + 19 x4 ^2
   - 56 x4 * x5 - 52 x4 * x6 + 86 x4 * x7 - 22 x4 * x8 - 98 x4 * x9
   + 74 x4 * x10 + 96 x4 * x12 + 58 x4 * x16 - 8 x4 * x17 + 6 x4 * x19
   + 68 x4 * x20 - 72 x4 * x24 - 40 x4 * x25 - 42 x4 * x26 - 70 x4 * x28
   + 60 x4 * x30 - 14 x4 * x31 - 58 x4 * x32 - 48 x4 * x33 + 62 x4 * x34
   - 88 x4 * x37 + 78 x4 * x39 - 76 x5 * x7 - 48 x5 * x8 + 74 x5 * x15
   + 18 x5 * x17 - 18 x5 * x20 + 34 x5 * x21 - 62 x5 * x24 - 70 x5 * x25
   - 10 x5 * x26 + 94 x5 * x27 + 12 x5 * x30 + 36 x5 * x31 + 70 x5 * x34
   - 12 x6 * x8 + 38 x6 * x11 + 58 x6 * x12 - 98 x6 * x14 - 4 x6 * x15
   + 4 x6 * x16 + 56 x6 * x18 - 8 x6 * x19 + 42 x6 * x20 + 12 x6 * x21
   + 58 x6 * x22 - 4 x6 * x23 + 26 x6 * x26 + 36 x6 * x27 - 38 x6 * x28
   + 76 x6 * x31 - 90 x6 * x33 + 98 x6 * x34 - 82 x6 * x35 + 34 x6 * x36
   - 66 x6 * x37 + 54 x6 * x39 + x7 ^2 - 60 x7 * x10 + 86 x7 * x14
   - 70 x7 * x15 - 6 x7 * x16 - 90 x7 * x17 + 78 x7 * x18 + 90 x7 * x19
   - 16 x7 * x21 + 40 x7 * x25 + 86 x7 * x26 + 36 x7 * x27 - 8 x7 * x31
   - 82 x7 * x34 + 50 x7 * x35 + 4 x7 * x38 - 46 x7 * x39 + 44 x8 ^2
   - 88 x8 * x9 + 40 x8 * x13 + 40 x8 * x16 + 84 x8 * x18 - 16 x8 * x19
   - 52 x8 * x20 - 44 x8 * x23 + 88 x8 * x24 - 70 x8 * x25 + 58 x8 * x27
   + 72 x8 * x29 + 20 x8 * x30 - 62 x8 * x31 + 22 x8 * x32 + 60 x8 * x33
   + 42 x8 * x35 - 70 x8 * x37 + 80 x8 * x38 + 22 x9 ^2 + 54 x9 * x10
   - 16 x9 * x14 + 62 x9 * x15 + 62 x9 * x16 + 26 x9 * x18 - 28 x9 * x22
   + 66 x9 * x23 + 42 x9 * x25 + 92 x9 * x28 - 34 x9 * x29 + 54 x9 * x30
   - 62 x9 * x31 - 32 x9 * x35 + 56 x9 * x36 - 36 x9 * x39 + 34 x10 ^2
   - 38 x10 * x11 - 40 x10 * x13 + 92 x10 * x16 + 58 x10 * x18
   + 56 x10 * x19 - 16 x10 * x20 - 88 x10 * x22 + 2 x10 * x23
   - 98 x10 * x24 + 26 x10 * x27 - 34 x10 * x28 + 28 x10 * x29
   - 82 x10 * x35 + 28 x10 * x36 + 3 x11 ^2 - 72 x11 * x12 + 68 x11 * x14
   - 86 x11 * x15 - 22 x11 * x16 - 60 x11 * x17 + 24 x11 * x19
   + 86 x11 * x20 + 54 x11 * x22 + 24 x11 * x23 + 4 x11 * x24
   + 14 x11 * x25 - 16 x11 * x26 + 78 x11 * x27 - 84 x11 * x28
   + 98 x11 * x38 - 10 x11 * x39 - 26 x12 * x14 + 36 x12 * x16
   - 90 x12 * x20 + 76 x12 * x21 + 94 x12 * x23 - 26 x12 * x24
   - 16 x12 * x25 - 36 x12 * x27 - 88 x12 * x34 + 96 x12 * x35
   + 18 x12 * x36 + 26 x12 * x37 - 56 x12 * x38 - 8 x13 ^2 - 78 x13 * x17
   - 76 x13 * x18 + 80 x13 * x24 + 46 x13 * x25 - 76 x13 * x28
   - 92 x13 * x31 - 34 x13 * x33 - 38 x13 * x36 - 52 x13 * x37
   - 10 x13 * x39 + 20 x14 * x16 + 20 x14 * x19 - 58 x14 * x22
   - 94 x14 * x23 - 36 x14 * x24 + 4 x14 * x25 - 28 x14 * x27
   - 64 x14 * x30 - 66 x14 * x31 - 98 x14 * x33 - 6 x14 * x36
   + 22 x14 * x37 + 88 x15 * x16 - 12 x15 * x18 + 4 x15 * x20
   - 66 x15 * x24 - 98 x15 * x25 - 48 x15 * x28 - 48 x15 * x31
   + 6 x15 * x36 + 96 x15 * x37 - 38 x15 * x39 - 52 x16 * x17
   - 70 x16 * x19 - 22 x16 * x21 - 66 x16 * x22 - 86 x16 * x25
   - 52 x16 * x28 + 8 x16 * x29 + 42 x16 * x30 + 70 x16 * x35
   + 80 x16 * x36 + 72 x16 * x37 + 14 x16 * x38 - 78 x17 * x21
   - 42 x17 * x22 - 62 x17 * x24 + 38 x17 * x28 + 82 x17 * x29
   - 42 x17 * x30 - 46 x17 * x33 + 72 x17 * x34 - 84 x17 * x36
   + 94 x17 * x37 + 50 x17 * x38 - 58 x17 * x39 - 30 x18 * x19
   - 76 x18 * x20 + 96 x18 * x27 - 36 x18 * x31 - 64 x18 * x32
   - 26 x18 * x34 - 80 x18 * x36 + 30 x19 * x23 - 16 x19 * x25
   + 84 x19 * x27 + 62 x19 * x31 + 54 x19 * x32 + 88 x19 * x33
   - 80 x19 * x34 + 24 x19 * x35 + 33 x20 ^2 - 2 x20 * x22 - 18 x20 * x25
   + 90 x20 * x26 + 10 x20 * x27 - 74 x20 * x36 - 26 x20 * x37
   - 36 x20 * x39 - 12 x21 ^2 - 22 x21 * x23 - 82 x21 * x26 - 82 x21 * x27
   + 32 x21 * x28 + 28 x21 * x32 + 70 x21 * x35 + 82 x21 * x36
   - 44 x21 * x37 - 18 x21 * x38 + 58 x21 * x39 - 26 x22 * x23
   + 24 x22 * x24 + 34 x22 * x27 - 68 x22 * x28 - 28 x22 * x34
   - 52 x22 * x35 + 28 x22 * x36 + 80 x22 * x37 + 49 x23 ^2 + 36 x23 * x25
   + 86 x23 * x28 - 20 x23 * x29 - 62 x23 * x30 + 72 x23 * x31
   + 88 x23 * x32 - 52 x23 * x34 + 42 x23 * x35 - 60 x23 * x37 - 7 x24 ^2
   - 10 x24 * x25 - 6 x24 * x26 - 88 x24 * x28 - 26 x24 * x29
   + 24 x24 * x30 + 78 x24 * x33 - 42 x24 * x37 - 36 x24 * x38
   + 80 x24 * x39 + x25 ^2 + 2 x25 * x26 + 28 x25 * x27 + 28 x25 * x28
   - 8 x25 * x29 + 20 x25 * x31 - 20 x25 * x33 + 6 x25 * x35 + 2 x25 * x37
   + 40 x25 * x38 + 56 x25 * x39 + 26 x26 * x28 - 64 x26 * x29
   - 78 x26 * x30 + 14 x26 * x32 - 68 x26 * x35 + 44 x26 * x36
   - 32 x26 * x37 - 84 x26 * x39 + 11 x27 ^2 + 76 x27 * x28 - 62 x27 * x32
   + 86 x27 * x33 + 18 x27 * x36 + 62 x27 * x38 + 72 x28 * x29
   - 78 x28 * x30 - 4 x28 * x31 - 52 x28 * x36 + 98 x28 * x38 + 32 x29 ^2
   - 24 x29 * x32 - 52 x29 * x33 + 84 x29 * x35 - 76 x29 * x36
   + 6 x29 * x37 + 84 x29 * x38 - 35 x30 ^2 + 52 x30 * x32 + 98 x30 * x34
   - 34 x30 * x35 + 2 x30 * x39 + 30 x31 * x32 - 12 x31 * x35
   - 50 x31 * x36 + 68 x31 * x37 - 88 x31 * x39 + 40 x32 ^2 + 52 x32 * x33
   - 28 x32 * x34 + 98 x32 * x36 + 68 x32 * x37 + 22 x33 ^2 - 54 x33 * x35
   - 60 x33 * x36 - 2 x33 * x37 - 4 x34 * x35 - 30 x34 * x37 - 20 x34 * x39
   - 12 x36 * x38 + 68 x37 * x39 ] / 2 
Subject To
Bounds
 x0 <= 1
 x1 <= 1
 x2 <= 1
 x3 <= 1
 x4 <= 1
 x5 <= 1
 x6 <= 1
 x7 <= 1
 x8 <= 1
 x9 <= 1
 x10 <= 1
 x11 <= 1
 x12 <= 1
 x13 <= 1
 x14 <= 1
 x15 <= 1
 x16 <= 1
 x17 <= 1
 x18 <= 1
 x19 <= 1
 x20 <= 1
 x21 <= 1
 x22 <= 1
 x23 <= 1
 x24 <= 1
 x25 <= 1
 x26 <= 1
 x27 <= 1
 x28 <= 1
 x29 <= 1
 x30 <= 1
 x31 <= 1
 x32 <= 1
 x33 <= 1
 x34 <= 1
 x35 <= 1
 x36 <= 1
 x37 <= 1
 x38 <= 1
 x39 <= 1
End
